p cnf 15 50
1 2 3 0
4 5 6 0
7 8 9 0
10 11 12 0
13 14 15 0
-1 -2 0
-1 -3 0
-2 -3 0
-4 -5 0
-4 -6 0
-5 -6 0
-7 -8 0
-7 -9 0
-8 -9 0
-10 -11 0
-10 -12 0
-11 -12 0
-13 -14 0
-13 -15 0
-14 -15 0
-1 -4 -7 0
-1 -4 -10 0
-1 -4 -13 0
-1 -7 -10 0
-1 -7 -13 0
-4 -7 -10 0
-4 -7 -13 0
-7 -10 -13 0
-1 -10 -13 0
-4 -10 -13 0
-2 -5 -8 0
-2 -5 -11 0
-2 -5 -14 0
-2 -8 -11 0
-2 -8 -14 0
-5 -8 -11 0
-5 -8 -14 0
-8 -11 -14 0
-2 -11 -14 0
-5 -11 -14 0
-3 -6 -9 0
-3 -6 -12 0
-3 -6 -15 0
-3 -9 -12 0
-3 -9 -15 0
-6 -9 -12 0
-6 -9 -15 0
-9 -12 -15 0
-3 -12 -15 0
-6 -12 -15 0
